solution status: optimal solution found
objective value:                                    0
one.thingy.devices[0].thingy.vs1_y                   16 	(obj:0)
one.thingy.devices[0].thingy.vs1_z                   15 	(obj:0)
one.thingy.devices[0].thingy.circulate2_y                   16 	(obj:0)
one.thingy.devices[0].thingy.circulate2_z                   17 	(obj:0)
one.ctrl_a[5].hole_y                               14 	(obj:0)
one.ctrl_a[5].hole_z                               17 	(obj:0)
one.ctrl_a[5].flush_y                              14 	(obj:0)
one.ctrl_a[5].flush_z                              16 	(obj:0)
one.ctrl_a[6].hole_y                               14 	(obj:0)
one.ctrl_a[6].hole_z                               14 	(obj:0)
one.ctrl_a[6].flush_y                              14 	(obj:0)
one.ctrl_a[6].flush_z                              15 	(obj:0)
